3
21
40
40	32
1	2	15	8	11	5	
2	3	23	3	11	6	29	3	
3	2	28	3	9	6	
4	1	6	8	
5	3	11	6	5	13	21	4	
6	3	32	3	11	5	11	5	
7	1	8	7	
8	2	14	8	21	3	
9	3	12	6	6	11	21	2	
10	1	14	6	
11	2	7	9	6	13	
12	1	15	8	
13	1	13	6	
14	1	20	4	
15	2	24	4	5	7	
16	3	31	4	14	7	7	12	
17	1	9	6	
18	3	9	6	8	13	27	3	
19	2	7	9	14	7	
20	1	29	3	
21	2	13	4	28	3	
